! C70H116N26O29 | Equilibrium Geometry | B3LYP/3-21G
 $BASIS GBASIS=N21 NGAUSS=3 $END
 $PCM SOLVNT=WATER $END
 $CONTRL SCFTYP=RHF RUNTYP=OPTIMIZE ICHARG=0 MULT=1 DFTTYP=B3LYP $END
 $STATPT OPTTOL=0.0001 NSTEP=250 $END
 $SYSTEM MWORDS=125 $END

 $DATA
D2Q10K2 Geometry Optimization in water B3YLP/3-21G
C1
N     7.0   3.37880  -3.10990   0.19710
C     6.0   4.20780  -1.88960   0.19940
C     6.0   4.23040  -1.29360   1.59500
O     8.0   3.29240  -0.67430   2.05800
C     6.0   3.68480  -0.88120  -0.85130
C     6.0   4.59810   0.31800  -1.03110
O     8.0   5.71700   0.41120  -0.56880
O     8.0   4.15860   1.14640  -1.93860
H     1.0   5.23310  -2.16680  -0.06370
H     1.0   2.68610  -0.53420  -0.57320
H     1.0   3.58720  -1.38430  -1.81660
H     1.0   4.85130   1.82100  -2.05870
H     1.0   2.42510  -2.87870   0.47000
H     1.0   3.34130  -3.50960  -0.73810
N     7.0   5.26490  -1.69750   2.36160
C     6.0   5.37380  -1.46190   3.80970
C     6.0   6.83560  -1.54190   4.22200
O     8.0   7.60400  -2.33220   3.70680
C     6.0   4.51690  -2.47600   4.60920
C     6.0   4.02340  -1.91490   5.93190
O     8.0   4.63020  -1.11390   6.61250
O     8.0   2.80670  -2.29130   6.22500
H     1.0   5.01950  -0.44680   4.01510
H     1.0   5.07960  -3.39520   4.78880
H     1.0   3.64690  -2.76010   4.01030
H     1.0   2.54570  -1.82010   7.03730
H     1.0   5.98750  -2.26660   1.94610
N     7.0   7.26360  -0.59810   5.08910
C     6.0   8.67860  -0.27810   5.33290
C     6.0   8.95260  -0.08150   6.81410
O     8.0   8.27470   0.63600   7.52300
C     6.0   9.10540   0.96140   4.51270
C     6.0  10.61990   1.25400   4.62300
C     6.0  11.04170   2.39020   3.71050
O     8.0  10.34280   3.35360   3.47330
N     7.0  12.27110   2.28480   3.17560
H     1.0   9.28650  -1.12790   5.00800
H     1.0   6.58610   0.03190   5.49360
H     1.0   8.53710   1.83400   4.84570
H     1.0   8.85610   0.79340   3.46160
H     1.0  11.18040   0.35040   4.36820
H     1.0  10.88280   1.52020   5.64940
H     1.0  12.61540   3.01430   2.56970
H     1.0  12.85300   1.48870   3.38600
N     7.0  10.03030  -0.74880   7.28040
C     6.0  10.49630  -0.74610   8.67290
C     6.0  12.01210  -0.86620   8.70240
O     8.0  12.62360  -1.59450   7.94440
C     6.0   9.82840  -1.88410   9.47930
C     6.0  10.17570  -1.82840  10.98450
C     6.0   9.41260  -2.87740  11.77020
O     8.0   9.25480  -4.01650  11.38210
N     7.0   8.92240  -2.48100  12.95810
H     1.0  10.23200   0.21530   9.12440
H     1.0  10.55970  -1.32080   6.63940
H     1.0  10.12920  -2.85070   9.06670
H     1.0   8.74350  -1.80780   9.36820
H     1.0   9.94350  -0.83240  11.37130
H     1.0  11.24460  -1.99480  11.13610
H     1.0   8.41290  -3.13660  13.53110
H     1.0   9.06360  -1.53550  13.27890
N     7.0  12.64310  -0.05450   9.57880
C     6.0  14.10150   0.10310   9.67290
C     6.0  14.51770   0.31710  11.11920
O     8.0  13.89650   1.03210  11.88150
C     6.0  14.58650   1.26130   8.77010
C     6.0  16.12810   1.37490   8.72310
C     6.0  16.58970   2.41030   7.71490
O     8.0  15.94030   3.39010   7.41230
N     7.0  17.79590   2.18850   7.16320
H     1.0  14.57110  -0.82620   9.33540
H     1.0  12.09050   0.54280  10.17560
H     1.0  14.15880   2.20410   9.12120
H     1.0  14.21690   1.09540   7.75470
H     1.0  16.55320   0.40110   8.46510
H     1.0  16.51930   1.65030   9.70520
H     1.0  18.16600   2.84510   6.49250
H     1.0  18.33640   1.37870   7.42570
N     7.0  15.60190  -0.38540  11.51410
C     6.0  16.12530  -0.42890  12.88650
C     6.0  17.63940  -0.56840  12.86320
O     8.0  18.21900  -1.28050  12.06600
C     6.0  15.46860  -1.57900  13.68570
C     6.0  15.87820  -1.58050  15.17680
C     6.0  15.11060  -2.62170  15.96910
O     8.0  14.77880  -3.69740  15.51550
N     7.0  14.82060  -2.29250  17.24030
H     1.0  15.89230   0.52220  13.37540
H     1.0  16.07290  -0.97200  10.84150
H     1.0  15.73180  -2.53780  13.23110
H     1.0  14.38200  -1.47780  13.62240
H     1.0  15.69740  -0.58910  15.60110
H     1.0  16.94580  -1.78830  15.27890
H     1.0  14.32130  -2.94720  17.82330
H     1.0  15.10860  -1.40210  17.61590
N     7.0  18.30320   0.18980  13.76280
C     6.0  19.76610   0.28960  13.86410
C     6.0  20.17730   0.47670  15.31610
O     8.0  19.56150   1.19100  16.08340
C     6.0  20.30070   1.43750  12.97610
C     6.0  21.84580   1.49120  12.93730
C     6.0  22.35040   2.52080  11.94380
O     8.0  21.75660   3.54600  11.68000
N     7.0  23.52920   2.23990  11.36080
H     1.0  20.20060  -0.65480  13.52170
H     1.0  17.77360   0.76910  14.39710
H     1.0  19.90830   2.39250  13.33550
H     1.0  19.93030   1.29730  11.95720
H     1.0  22.23380   0.50470  12.66950
H     1.0  22.24310   1.74000  13.92400
H     1.0  23.92510   2.88950  10.69810
H     1.0  24.02390   1.39210  11.59140
N     7.0  21.24240  -0.25350  15.71320
C     6.0  21.74330  -0.32980  17.09300
C     6.0  23.25540  -0.49180  17.09410
O     8.0  23.83780  -1.20860  16.30330
C     6.0  21.05540  -1.48290  17.86100
C     6.0  21.44630  -1.52190  19.35680
C     6.0  20.64870  -2.55980  20.12360
O     8.0  20.21980  -3.58020  19.62540
N     7.0  20.44570  -2.29290  21.42590
H     1.0  21.51670   0.61580  17.59540
H     1.0  21.70960  -0.84050  15.03830
H     1.0  21.30650  -2.43740  17.39070
H     1.0  19.97180  -1.35960  17.78600
H     1.0  21.28030  -0.53560  19.79840
H     1.0  22.50830  -1.75300  19.46690
H     1.0  19.93280  -2.94910  21.99530
H     1.0  20.81490  -1.45000  21.83810
N     7.0  23.91430   0.25030  18.01090
C     6.0  25.37640   0.32410  18.14260
C     6.0  25.75980   0.51290  19.60220
O     8.0  25.14270   1.24600  20.35060
C     6.0  25.95070   1.45760  17.26100
C     6.0  27.49690   1.48100  17.25290
C     6.0  28.03920   2.50010  16.26880
O     8.0  27.48800   3.55310  16.02280
N     7.0  29.20150   2.17740  15.67440
H     1.0  25.80070  -0.63010  17.81460
H     1.0  23.38210   0.83440  18.63860
H     1.0  25.56980   2.42150  17.60900
H     1.0  25.59820   1.32070  16.23540
H     1.0  27.87070   0.48660  16.99400
H     1.0  27.87950   1.72350  18.24700
H     1.0  29.62000   2.81810  15.01680
H     1.0  29.66090   1.30610  15.88990
N     7.0  26.80000  -0.23650  20.02860
C     6.0  27.27060  -0.30920  21.41950
C     6.0  28.77670  -0.51750  21.45380
O     8.0  29.35160  -1.26150  20.68290
C     6.0  26.53220  -1.43060  22.18760
C     6.0  26.89090  -1.46170  23.69170
C     6.0  26.04530  -2.46310  24.45580
O     8.0  25.57650  -3.46590  23.95780
N     7.0  25.84500  -2.18330  25.75570
H     1.0  27.06310   0.64960  21.90480
H     1.0  27.26970  -0.83870  19.36890
H     1.0  26.76350  -2.39850  21.73490
H     1.0  25.45470  -1.27550  22.08850
H     1.0  26.74720  -0.46480  24.11700
H     1.0  27.94270  -1.72440  23.82670
H     1.0  25.30040  -2.81490  26.32360
H     1.0  26.24600  -1.35490  26.16770
N     7.0  29.44140   0.21520  22.37430
C     6.0  30.90290   0.24520  22.53020
C     6.0  31.27120   0.44450  23.99240
O     8.0  30.67400   1.21490  24.71900
C     6.0  31.52790   1.34660  21.64190
C     6.0  33.07380   1.31420  21.65230
C     6.0  33.66080   2.31200  20.67230
O     8.0  33.19220   3.41520  20.48160
N     7.0  34.76790   1.91290  20.02130
H     1.0  31.30170  -0.72680  22.22330
H     1.0  28.91670   0.82410  22.98460
H     1.0  31.17750   2.32760  21.97380
H     1.0  31.18320   1.21040  20.61350
H     1.0  33.41480   0.30600  21.40170
H     1.0  33.45380   1.54740  22.64950
H     1.0  35.21140   2.53590  19.36320
H     1.0  35.15900   0.99910  20.19110
N     7.0  32.28990  -0.32130  24.44060
C     6.0  32.77670  -0.35210  25.82750
C     6.0  34.27460  -0.61430  25.84630
O     8.0  34.80620  -1.40750  25.09360
C     6.0  32.01300  -1.41270  26.65480
C     6.0  32.39010  -1.38310  28.15420
C     6.0  31.52890  -2.32980  28.96830
O     8.0  31.14550  -3.40560  28.55770
N     7.0  31.21620  -1.91640  30.20930
H     1.0  32.61160   0.63380  26.27320
H     1.0  32.74830  -0.94840  23.79610
H     1.0  32.20890  -2.40730  26.24550
H     1.0  30.93950  -1.22910  26.56090
H     1.0  32.27690  -0.36410  28.53390
H     1.0  33.43630  -1.66650  28.28990
H     1.0  30.65310  -2.50570  30.80400
H     1.0  31.54440  -1.02560  30.54910
N     7.0  34.98510   0.13390  26.71940
C     6.0  36.45130   0.13540  26.82160
C     6.0  36.87660   0.35590  28.26490
O     8.0  36.45270   1.27490  28.93860
C     6.0  37.06730   1.20510  25.88960
C     6.0  38.61000   1.12880  25.84580
C     6.0  39.18990   2.16390  24.86050
C     6.0  40.72800   2.08910  24.82390
N     7.0  41.26590   3.08050  23.87900
H     1.0  36.81980  -0.84930  26.51700
H     1.0  36.75640   2.20080  26.21670
H     1.0  36.67830   1.05990  24.87830
H     1.0  38.91710   0.12480  25.54140
H     1.0  39.02090   1.31340  26.84130
H     1.0  38.88080   3.16860  25.16090
H     1.0  38.79240   1.98010  23.85880
H     1.0  41.04010   1.08880  24.51070
H     1.0  41.13060   2.28700  25.82130
H     1.0  42.28320   3.03610  23.86640
H     1.0  41.00920   4.02080  24.17360
H     1.0  34.49680   0.78910  27.31110
N     7.0  37.70050  -0.58590  28.77320
C     6.0  38.19660  -0.61820  30.15680
C     6.0  39.53350  -1.34450  30.20000
O     8.0  39.75050  -2.36830  29.58410
C     6.0  37.16640  -1.30460  31.08680
C     6.0  37.57000  -1.24560  32.57720
C     6.0  36.48810  -1.88680  33.47020
C     6.0  36.90280  -1.84890  34.95320
N     7.0  35.86160  -2.46440  35.79100
H     1.0  38.36030   0.41060  30.49120
H     1.0  37.03940  -2.34720  30.78300
H     1.0  36.19750  -0.81340  30.96630
H     1.0  37.71910  -0.20470  32.87540
H     1.0  38.51440  -1.77400  32.72880
H     1.0  36.32850  -2.92410  33.16390
H     1.0  35.54240  -1.35370  33.34200
H     1.0  37.05020  -0.81200  35.26780
H     1.0  37.84130  -2.39430  35.08740
H     1.0  36.14550  -2.45020  36.76890
H     1.0  35.73340  -3.44020  35.52950
H     1.0  38.01290  -1.33440  28.17220
O     8.0  40.44820  -0.77680  30.94590
H     1.0  40.07070   0.00460  31.38480
 $END
